output_file = "12-1-E-100-1.80-250.csv";

n_days = 100;
n_shelf_types = 2;
n_crops = 1;

num_shelves = [
    8, 4
];


crop_shelf_type_compatible = [
    [1, 1]
];

crop_growth_days = [35];

n_configurations = 4;

crop_growth_day_config = [
    [1, 1, 1, 1, 1, 1, 1, 2, 2, 2, 2, 2, 2, 2, 2, 2, 2, 3, 3, 3, 3, 3, 3, 3, 3, 3, 3, 3, 3, 3, 3, 4, 4, 4, 4]
];

capacity = [
    [12, 12, 12, 12],
[12, 12, 12, 12]
];

demand = [
    [0, 0, 0, 0, 0, 0, 0, 0, 0, 0, 0, 0, 0, 0, 0, 0, 0, 0, 0, 0, 0, 0, 0, 0, 0, 0, 0, 0, 0, 0, 0, 0, 0, 0, 0, 0, 0, 16, 0, 0, 18, 0, 0, 0, 16, 0, 0, 23, 5, 0, 5, 0, 18, 0, 0, 0, 0, 14, 0, 10, 21, 0, 0, 0, 12, 18, 0, 32, 16, 0, 0, 7, 18, 0, 12, 19, 0, 0, 0, 0, 0, 28, 0, 0, 0, 10, 0, 27, 0, 0, 0, 0, 0, 19, 0, 0, 0, 0, 0, 0]
];
